c description: Graph pigeonhole principle formula on fast_gnp_random_graph(10,25,0.9)
c generator: CNFgen (0.9.0)
c copyright: (C) 2012-2020 Massimo Lauria <massimo.lauria@uniroma1.it>
c url: https://massimolauria.net/cnfgen
c
p cnf 222 898
1 2 3 4 5 6 7 8 9 10 11 12 13 14 15 16 17 18 19 20 21 22 23 0
24 25 26 27 28 29 30 31 32 33 34 35 36 37 38 39 40 41 42 43 44 45 46 47 0
48 49 50 51 52 53 54 55 56 57 58 59 60 61 62 63 64 65 66 67 68 69 70 71 0
72 73 74 75 76 77 78 79 80 81 82 83 84 85 86 87 88 89 90 91 92 93 94 0
95 96 97 98 99 100 101 102 103 104 105 106 107 108 109 110 111 112 113 114 115 116 117 118 0
119 120 121 122 123 124 125 126 127 128 129 130 131 132 133 134 135 136 137 138 0
139 140 141 142 143 144 145 146 147 148 149 150 151 152 153 154 155 156 157 158 159 0
160 161 162 163 164 165 166 167 168 169 170 171 172 173 174 175 176 177 178 179 180 181 0
182 183 184 185 186 187 188 189 190 191 192 193 194 195 196 197 198 199 200 201 202 0
203 204 205 206 207 208 209 210 211 212 213 214 215 216 217 218 219 220 221 222 0
-1 -24 0
-1 -48 0
-1 -72 0
-1 -95 0
-1 -119 0
-1 -139 0
-1 -160 0
-1 -182 0
-1 -203 0
-24 -48 0
-24 -72 0
-24 -95 0
-24 -119 0
-24 -139 0
-24 -160 0
-24 -182 0
-24 -203 0
-48 -72 0
-48 -95 0
-48 -119 0
-48 -139 0
-48 -160 0
-48 -182 0
-48 -203 0
-72 -95 0
-72 -119 0
-72 -139 0
-72 -160 0
-72 -182 0
-72 -203 0
-95 -119 0
-95 -139 0
-95 -160 0
-95 -182 0
-95 -203 0
-119 -139 0
-119 -160 0
-119 -182 0
-119 -203 0
-139 -160 0
-139 -182 0
-139 -203 0
-160 -182 0
-160 -203 0
-182 -203 0
-2 -25 0
-2 -49 0
-2 -73 0
-2 -96 0
-2 -120 0
-2 -140 0
-2 -161 0
-2 -183 0
-2 -204 0
-25 -49 0
-25 -73 0
-25 -96 0
-25 -120 0
-25 -140 0
-25 -161 0
-25 -183 0
-25 -204 0
-49 -73 0
-49 -96 0
-49 -120 0
-49 -140 0
-49 -161 0
-49 -183 0
-49 -204 0
-73 -96 0
-73 -120 0
-73 -140 0
-73 -161 0
-73 -183 0
-73 -204 0
-96 -120 0
-96 -140 0
-96 -161 0
-96 -183 0
-96 -204 0
-120 -140 0
-120 -161 0
-120 -183 0
-120 -204 0
-140 -161 0
-140 -183 0
-140 -204 0
-161 -183 0
-161 -204 0
-183 -204 0
-3 -26 0
-3 -50 0
-3 -74 0
-3 -97 0
-3 -121 0
-3 -141 0
-3 -184 0
-26 -50 0
-26 -74 0
-26 -97 0
-26 -121 0
-26 -141 0
-26 -184 0
-50 -74 0
-50 -97 0
-50 -121 0
-50 -141 0
-50 -184 0
-74 -97 0
-74 -121 0
-74 -141 0
-74 -184 0
-97 -121 0
-97 -141 0
-97 -184 0
-121 -141 0
-121 -184 0
-141 -184 0
-4 -27 0
-4 -51 0
-4 -75 0
-4 -98 0
-4 -142 0
-4 -162 0
-4 -185 0
-4 -205 0
-27 -51 0
-27 -75 0
-27 -98 0
-27 -142 0
-27 -162 0
-27 -185 0
-27 -205 0
-51 -75 0
-51 -98 0
-51 -142 0
-51 -162 0
-51 -185 0
-51 -205 0
-75 -98 0
-75 -142 0
-75 -162 0
-75 -185 0
-75 -205 0
-98 -142 0
-98 -162 0
-98 -185 0
-98 -205 0
-142 -162 0
-142 -185 0
-142 -205 0
-162 -185 0
-162 -205 0
-185 -205 0
-5 -28 0
-5 -52 0
-5 -76 0
-5 -99 0
-5 -122 0
-5 -163 0
-5 -186 0
-5 -206 0
-28 -52 0
-28 -76 0
-28 -99 0
-28 -122 0
-28 -163 0
-28 -186 0
-28 -206 0
-52 -76 0
-52 -99 0
-52 -122 0
-52 -163 0
-52 -186 0
-52 -206 0
-76 -99 0
-76 -122 0
-76 -163 0
-76 -186 0
-76 -206 0
-99 -122 0
-99 -163 0
-99 -186 0
-99 -206 0
-122 -163 0
-122 -186 0
-122 -206 0
-163 -186 0
-163 -206 0
-186 -206 0
-6 -29 0
-6 -53 0
-6 -77 0
-6 -100 0
-6 -123 0
-6 -164 0
-6 -187 0
-6 -207 0
-29 -53 0
-29 -77 0
-29 -100 0
-29 -123 0
-29 -164 0
-29 -187 0
-29 -207 0
-53 -77 0
-53 -100 0
-53 -123 0
-53 -164 0
-53 -187 0
-53 -207 0
-77 -100 0
-77 -123 0
-77 -164 0
-77 -187 0
-77 -207 0
-100 -123 0
-100 -164 0
-100 -187 0
-100 -207 0
-123 -164 0
-123 -187 0
-123 -207 0
-164 -187 0
-164 -207 0
-187 -207 0
-30 -54 0
-30 -78 0
-30 -101 0
-30 -143 0
-30 -165 0
-30 -188 0
-30 -208 0
-54 -78 0
-54 -101 0
-54 -143 0
-54 -165 0
-54 -188 0
-54 -208 0
-78 -101 0
-78 -143 0
-78 -165 0
-78 -188 0
-78 -208 0
-101 -143 0
-101 -165 0
-101 -188 0
-101 -208 0
-143 -165 0
-143 -188 0
-143 -208 0
-165 -188 0
-165 -208 0
-188 -208 0
-7 -31 0
-7 -55 0
-7 -79 0
-7 -102 0
-7 -124 0
-7 -166 0
-7 -189 0
-7 -209 0
-31 -55 0
-31 -79 0
-31 -102 0
-31 -124 0
-31 -166 0
-31 -189 0
-31 -209 0
-55 -79 0
-55 -102 0
-55 -124 0
-55 -166 0
-55 -189 0
-55 -209 0
-79 -102 0
-79 -124 0
-79 -166 0
-79 -189 0
-79 -209 0
-102 -124 0
-102 -166 0
-102 -189 0
-102 -209 0
-124 -166 0
-124 -189 0
-124 -209 0
-166 -189 0
-166 -209 0
-189 -209 0
-8 -32 0
-8 -56 0
-8 -80 0
-8 -103 0
-8 -144 0
-8 -167 0
-8 -190 0
-8 -210 0
-32 -56 0
-32 -80 0
-32 -103 0
-32 -144 0
-32 -167 0
-32 -190 0
-32 -210 0
-56 -80 0
-56 -103 0
-56 -144 0
-56 -167 0
-56 -190 0
-56 -210 0
-80 -103 0
-80 -144 0
-80 -167 0
-80 -190 0
-80 -210 0
-103 -144 0
-103 -167 0
-103 -190 0
-103 -210 0
-144 -167 0
-144 -190 0
-144 -210 0
-167 -190 0
-167 -210 0
-190 -210 0
-9 -33 0
-9 -57 0
-9 -104 0
-9 -145 0
-9 -168 0
-33 -57 0
-33 -104 0
-33 -145 0
-33 -168 0
-57 -104 0
-57 -145 0
-57 -168 0
-104 -145 0
-104 -168 0
-145 -168 0
-10 -34 0
-10 -58 0
-10 -81 0
-10 -105 0
-10 -125 0
-10 -146 0
-10 -169 0
-10 -191 0
-10 -211 0
-34 -58 0
-34 -81 0
-34 -105 0
-34 -125 0
-34 -146 0
-34 -169 0
-34 -191 0
-34 -211 0
-58 -81 0
-58 -105 0
-58 -125 0
-58 -146 0
-58 -169 0
-58 -191 0
-58 -211 0
-81 -105 0
-81 -125 0
-81 -146 0
-81 -169 0
-81 -191 0
-81 -211 0
-105 -125 0
-105 -146 0
-105 -169 0
-105 -191 0
-105 -211 0
-125 -146 0
-125 -169 0
-125 -191 0
-125 -211 0
-146 -169 0
-146 -191 0
-146 -211 0
-169 -191 0
-169 -211 0
-191 -211 0
-11 -35 0
-11 -59 0
-11 -82 0
-11 -106 0
-11 -126 0
-11 -147 0
-11 -170 0
-11 -192 0
-11 -212 0
-35 -59 0
-35 -82 0
-35 -106 0
-35 -126 0
-35 -147 0
-35 -170 0
-35 -192 0
-35 -212 0
-59 -82 0
-59 -106 0
-59 -126 0
-59 -147 0
-59 -170 0
-59 -192 0
-59 -212 0
-82 -106 0
-82 -126 0
-82 -147 0
-82 -170 0
-82 -192 0
-82 -212 0
-106 -126 0
-106 -147 0
-106 -170 0
-106 -192 0
-106 -212 0
-126 -147 0
-126 -170 0
-126 -192 0
-126 -212 0
-147 -170 0
-147 -192 0
-147 -212 0
-170 -192 0
-170 -212 0
-192 -212 0
-12 -36 0
-12 -60 0
-12 -83 0
-12 -107 0
-12 -127 0
-12 -148 0
-12 -171 0
-12 -213 0
-36 -60 0
-36 -83 0
-36 -107 0
-36 -127 0
-36 -148 0
-36 -171 0
-36 -213 0
-60 -83 0
-60 -107 0
-60 -127 0
-60 -148 0
-60 -171 0
-60 -213 0
-83 -107 0
-83 -127 0
-83 -148 0
-83 -171 0
-83 -213 0
-107 -127 0
-107 -148 0
-107 -171 0
-107 -213 0
-127 -148 0
-127 -171 0
-127 -213 0
-148 -171 0
-148 -213 0
-171 -213 0
-13 -37 0
-13 -61 0
-13 -84 0
-13 -108 0
-13 -128 0
-13 -149 0
-13 -172 0
-13 -193 0
-13 -214 0
-37 -61 0
-37 -84 0
-37 -108 0
-37 -128 0
-37 -149 0
-37 -172 0
-37 -193 0
-37 -214 0
-61 -84 0
-61 -108 0
-61 -128 0
-61 -149 0
-61 -172 0
-61 -193 0
-61 -214 0
-84 -108 0
-84 -128 0
-84 -149 0
-84 -172 0
-84 -193 0
-84 -214 0
-108 -128 0
-108 -149 0
-108 -172 0
-108 -193 0
-108 -214 0
-128 -149 0
-128 -172 0
-128 -193 0
-128 -214 0
-149 -172 0
-149 -193 0
-149 -214 0
-172 -193 0
-172 -214 0
-193 -214 0
-14 -38 0
-14 -85 0
-14 -109 0
-14 -150 0
-14 -194 0
-14 -215 0
-38 -85 0
-38 -109 0
-38 -150 0
-38 -194 0
-38 -215 0
-85 -109 0
-85 -150 0
-85 -194 0
-85 -215 0
-109 -150 0
-109 -194 0
-109 -215 0
-150 -194 0
-150 -215 0
-194 -215 0
-15 -39 0
-15 -62 0
-15 -86 0
-15 -110 0
-15 -129 0
-15 -151 0
-15 -173 0
-15 -195 0
-15 -216 0
-39 -62 0
-39 -86 0
-39 -110 0
-39 -129 0
-39 -151 0
-39 -173 0
-39 -195 0
-39 -216 0
-62 -86 0
-62 -110 0
-62 -129 0
-62 -151 0
-62 -173 0
-62 -195 0
-62 -216 0
-86 -110 0
-86 -129 0
-86 -151 0
-86 -173 0
-86 -195 0
-86 -216 0
-110 -129 0
-110 -151 0
-110 -173 0
-110 -195 0
-110 -216 0
-129 -151 0
-129 -173 0
-129 -195 0
-129 -216 0
-151 -173 0
-151 -195 0
-151 -216 0
-173 -195 0
-173 -216 0
-195 -216 0
-16 -40 0
-16 -63 0
-16 -87 0
-16 -111 0
-16 -130 0
-16 -152 0
-16 -196 0
-16 -217 0
-40 -63 0
-40 -87 0
-40 -111 0
-40 -130 0
-40 -152 0
-40 -196 0
-40 -217 0
-63 -87 0
-63 -111 0
-63 -130 0
-63 -152 0
-63 -196 0
-63 -217 0
-87 -111 0
-87 -130 0
-87 -152 0
-87 -196 0
-87 -217 0
-111 -130 0
-111 -152 0
-111 -196 0
-111 -217 0
-130 -152 0
-130 -196 0
-130 -217 0
-152 -196 0
-152 -217 0
-196 -217 0
-17 -41 0
-17 -64 0
-17 -112 0
-17 -131 0
-17 -153 0
-17 -174 0
-17 -197 0
-17 -218 0
-41 -64 0
-41 -112 0
-41 -131 0
-41 -153 0
-41 -174 0
-41 -197 0
-41 -218 0
-64 -112 0
-64 -131 0
-64 -153 0
-64 -174 0
-64 -197 0
-64 -218 0
-112 -131 0
-112 -153 0
-112 -174 0
-112 -197 0
-112 -218 0
-131 -153 0
-131 -174 0
-131 -197 0
-131 -218 0
-153 -174 0
-153 -197 0
-153 -218 0
-174 -197 0
-174 -218 0
-197 -218 0
-18 -42 0
-18 -65 0
-18 -88 0
-18 -132 0
-18 -154 0
-18 -175 0
-18 -198 0
-18 -219 0
-42 -65 0
-42 -88 0
-42 -132 0
-42 -154 0
-42 -175 0
-42 -198 0
-42 -219 0
-65 -88 0
-65 -132 0
-65 -154 0
-65 -175 0
-65 -198 0
-65 -219 0
-88 -132 0
-88 -154 0
-88 -175 0
-88 -198 0
-88 -219 0
-132 -154 0
-132 -175 0
-132 -198 0
-132 -219 0
-154 -175 0
-154 -198 0
-154 -219 0
-175 -198 0
-175 -219 0
-198 -219 0
-19 -66 0
-19 -89 0
-19 -113 0
-19 -133 0
-19 -155 0
-19 -176 0
-66 -89 0
-66 -113 0
-66 -133 0
-66 -155 0
-66 -176 0
-89 -113 0
-89 -133 0
-89 -155 0
-89 -176 0
-113 -133 0
-113 -155 0
-113 -176 0
-133 -155 0
-133 -176 0
-155 -176 0
-20 -43 0
-20 -67 0
-20 -90 0
-20 -114 0
-20 -134 0
-20 -156 0
-20 -177 0
-20 -199 0
-20 -220 0
-43 -67 0
-43 -90 0
-43 -114 0
-43 -134 0
-43 -156 0
-43 -177 0
-43 -199 0
-43 -220 0
-67 -90 0
-67 -114 0
-67 -134 0
-67 -156 0
-67 -177 0
-67 -199 0
-67 -220 0
-90 -114 0
-90 -134 0
-90 -156 0
-90 -177 0
-90 -199 0
-90 -220 0
-114 -134 0
-114 -156 0
-114 -177 0
-114 -199 0
-114 -220 0
-134 -156 0
-134 -177 0
-134 -199 0
-134 -220 0
-156 -177 0
-156 -199 0
-156 -220 0
-177 -199 0
-177 -220 0
-199 -220 0
-21 -44 0
-21 -68 0
-21 -91 0
-21 -115 0
-21 -135 0
-21 -178 0
-21 -200 0
-21 -221 0
-44 -68 0
-44 -91 0
-44 -115 0
-44 -135 0
-44 -178 0
-44 -200 0
-44 -221 0
-68 -91 0
-68 -115 0
-68 -135 0
-68 -178 0
-68 -200 0
-68 -221 0
-91 -115 0
-91 -135 0
-91 -178 0
-91 -200 0
-91 -221 0
-115 -135 0
-115 -178 0
-115 -200 0
-115 -221 0
-135 -178 0
-135 -200 0
-135 -221 0
-178 -200 0
-178 -221 0
-200 -221 0
-45 -69 0
-45 -92 0
-45 -116 0
-45 -136 0
-45 -157 0
-45 -179 0
-45 -201 0
-69 -92 0
-69 -116 0
-69 -136 0
-69 -157 0
-69 -179 0
-69 -201 0
-92 -116 0
-92 -136 0
-92 -157 0
-92 -179 0
-92 -201 0
-116 -136 0
-116 -157 0
-116 -179 0
-116 -201 0
-136 -157 0
-136 -179 0
-136 -201 0
-157 -179 0
-157 -201 0
-179 -201 0
-22 -46 0
-22 -70 0
-22 -93 0
-22 -117 0
-22 -137 0
-22 -158 0
-22 -180 0
-22 -202 0
-46 -70 0
-46 -93 0
-46 -117 0
-46 -137 0
-46 -158 0
-46 -180 0
-46 -202 0
-70 -93 0
-70 -117 0
-70 -137 0
-70 -158 0
-70 -180 0
-70 -202 0
-93 -117 0
-93 -137 0
-93 -158 0
-93 -180 0
-93 -202 0
-117 -137 0
-117 -158 0
-117 -180 0
-117 -202 0
-137 -158 0
-137 -180 0
-137 -202 0
-158 -180 0
-158 -202 0
-180 -202 0
-23 -47 0
-23 -71 0
-23 -94 0
-23 -118 0
-23 -138 0
-23 -159 0
-23 -181 0
-23 -222 0
-47 -71 0
-47 -94 0
-47 -118 0
-47 -138 0
-47 -159 0
-47 -181 0
-47 -222 0
-71 -94 0
-71 -118 0
-71 -138 0
-71 -159 0
-71 -181 0
-71 -222 0
-94 -118 0
-94 -138 0
-94 -159 0
-94 -181 0
-94 -222 0
-118 -138 0
-118 -159 0
-118 -181 0
-118 -222 0
-138 -159 0
-138 -181 0
-138 -222 0
-159 -181 0
-159 -222 0
-181 -222 0